50
120
100
98
98
97
95
94
90
90
89
86
85
83
81
79
79
74
72
72
71
68
67
65
64
64
62
59
58
56
55
55
54
51
51
50
47
46
45
44
43
40
36
34
33
31
29
28
27
27
26
21
